118305.78
40 39 36 37 38 60 59 58 62 61 7 6 5 10 9 8 30 29 31 28 11 27 26 12 13 14 3 15 16 17 18 24 32 33 34 25 23 22 19 20 21 2 1 71 0 75 74 55 73 72 69 70 65 4 64 63 66 67 68 56 57 42 43 47 46 49 48 54 53 52 50 35 51 45 44 41